12 48 3 10
12 16 20 6 10 5 18 8 20 5 17 16 1 8 18 8 5 7 19 18 14 9 1 12 3 7 7 13 14 12 4 13 6 15 2 20 4 14 15 2 20 18 17 15 5 2 6 16 
2.25 14.28 7.51 1.23 8.3 11.5 4.46 14.51 6.37 6.43 8.14 15.32 7.06 1.04 4.99 8.31 2.98 8.66 6.8 1.07 6.14 13.04 2.88 8.9 14.08 5.93 5.42 14.44 8.27 11.6 11.7 14.31 1.01 5.62 8.43 15.34 7.17 0.86 0.43 12.3 6.2 7.37 8.38 6.24 5.78 4.02 15.07 15.55 
9.59 11.4 0 4.09 5.71 1.11 7.42 3.25 6.59 4.91 3.6 13.87 13.28 8.21 12.08 0.44 12.21 2.83 14.06 12.78 0.44 15.47 15.97 15.45 10.52 0.2 3.38 4.91 1.23 6.85 6.97 6.9 1.73 15.63 0.01 13.46 11.21 11.88 10.11 8.9 12.29 1.71 9.27 0.07 6.76 1.31 13.34 1.24 
2.35 13.32 3.1 8.07 10.77 1.22 12.72 12.46 3.97 10.44 14.23 4.29 5.01 4.49 6.41 0.29 2.1 7.59 8.24 4.56 8.09 1.64 11.64 9.41 12.61 12.31 15.22 7.88 0.94 7.97 0.13 5.3 12.15 12.57 11.08 9 0.81 9.69 4.11 5.29 7.17 2.37 15.83 5.42 12.93 11.48 1.85 6.59 
8 8 8 8 8 8 8 8 8 8 8 8 8 8 8 8 8 8 8 8 8 8 8 8 8 8 8 8 8 8 8 8 8 8 8 8 8 8 8 8 8 8 8 8 8 8 8 8 
10.48 4.44 13.25 6.68 3.04 1.82 1.88 5.71 10.99 9.02 6.18 1.83 1.43 15.89 8.87 4.9 15.63 6.3 10.46 10.93 9.35 0.63 6.1 6.47 1.64 6.76 14.66 4.32 0.37 12.74 5.56 5.22 2.99 12.46 0.52 8.01 12.01 15.37 0.87 0.74 9.82 7 3.6 0.73 2.42 0.25 14.42 4.69 
2.92 14.21 16 0.56 0.27 12.58 13.03 15.47 13.74 9.21 5.22 4.24 1.51 1.85 1.63 9.85 9.47 9.85 11.74 8.47 12.2 13.11 15.81 10.66 1.74 8.2 2.04 1.7 2.36 14.87 9.79 4.27 11.96 12.68 11.66 1.69 9.79 3.27 7.49 11.47 2.26 7.54 1.09 0.77 14.31 4.01 6.38 14.95 
9.9 14.26 14.95 9.75 5.45 6.41 10.63 7.14 3.6 0.74 10.87 3.71 14.16 3.39 9.25 8.32 0.9 13.05 8.73 14.08 14.13 2.9 6.63 9.2 2.15 0.92 1.65 9.39 4.07 4.75 4.56 13.65 11.95 11.66 15.57 1.51 7.1 8.69 7.85 6.05 8.55 12.91 2.4 11.19 3.31 11.37 0.87 12.48 
15.18 7.1 8.55 2.38 3.09 10.66 4.33 9.62 0.43 9.89 1.69 1.01 4.2 13.43 3.64 13.07 13.23 1.34 0.35 5.09 7.5 2.36 6.9 10.65 9.08 12.82 3.88 3.94 11.45 11.04 13.08 1.17 5.49 15.6 13.04 6.38 6.47 2.43 5.25 14.03 5.93 2.79 7.49 2.38 1.49 10.14 11.01 1.19 
15.2 4.67 9.18 12.8 3.33 1.8 3.47 8.68 7.96 3.41 7.23 0.17 12.55 15.98 12.04 10.7 1.8 1.18 10.68 10.8 8.64 11.93 12.14 5.12 9.13 9.79 12.92 5.51 11.19 4.99 10.24 0.51 3.26 6.49 3.26 4.94 8.74 14.2 5.32 2.86 14.93 5.96 8.38 2.1 11.9 0.92 9.26 6.05 
1.51 5.36 8.18 11.06 13.44 9.34 10.82 8.89 6 5.14 1.95 4.52 6.25 5.9 9.73 4.32 7.91 2.78 3.48 3.62 15.65 12.78 14.59 0.97 14.03 5.7 2.84 8.01 7.58 7.18 5.87 14.65 14.75 0.42 9.42 7.28 14.73 4.99 7.53 2.64 12.63 8.42 9.84 3.79 4.23 9.71 8.59 10.28 
4.53 7.36 12.94 5.84 1.96 7.36 2.66 2.58 4.81 15.45 13.63 15.07 13.31 1.05 4.61 7.83 4.83 0.22 9.69 12.86 9.87 12.26 0.18 2.37 5.08 7.32 13.97 5.03 14.63 12.77 10.85 6.61 4.72 7.85 5.78 14.25 14.57 12.55 8.45 8.79 13.14 10.65 11.08 4.69 13 10.35 8.02 10.91 
15.53 13.23 3.87 13.11 10.06 12.78 10.04 3.98 7.01 2.27 8.93 3.51 1.53 7.16 10.93 11.32 1.31 6.73 8.07 8.56 14.33 9.68 9.38 10.04 2.28 6.89 15.09 9.34 12.91 12.86 11.23 9.94 12.64 3.59 6.95 11.49 11.73 12.99 12.78 9.72 10.65 12.55 12.23 14.36 0.16 5.98 15.39 12.55 
1 1 1 1 1 1 1 1 1 1 1 1 1 1 1 1 1 1 1 1 1 1 1 1 1 1 1 1 1 1 1 1 1 1 1 1 1 1 1 1 1 1 1 1 1 1 1 1 
1 1 1 1 1 1 1 1 1 1 1 1 1 1 1 1 1 1 1 1 1 1 1 1 1 1 1 1 1 1 1 1 1 1 1 1 1 1 1 1 1 1 1 1 1 1 1 1 
1 1 1 1 1 1 1 1 1 1 1 1 1 1 1 1 1 1 1 1 1 1 1 1 1 1 1 1 1 1 1 1 1 1 1 1 1 1 1 1 1 1 1 1 1 1 1 1 
1 1 1 1 1 1 1 1 1 1 1 1 1 1 1 1 1 1 1 1 1 1 1 1 1 1 1 1 1 1 1 1 1 1 1 1 1 1 1 1 1 1 1 1 1 1 1 1 
1 1 1 1 1 1 1 1 1 1 1 1 1 1 1 1 1 1 1 1 1 1 1 1 1 1 1 1 1 1 1 1 1 1 1 1 1 1 1 1 1 1 1 1 1 1 1 1 
1 1 1 1 1 1 1 1 1 1 1 1 1 1 1 1 1 1 1 1 1 1 1 1 1 1 1 1 1 1 1 1 1 1 1 1 1 1 1 1 1 1 1 1 1 1 1 1 
1 1 1 1 1 1 1 1 1 1 1 1 1 1 1 1 1 1 1 1 1 1 1 1 1 1 1 1 1 1 1 1 1 1 1 1 1 1 1 1 1 1 1 1 1 1 1 1 
1 1 1 1 1 1 1 1 1 1 1 1 1 1 1 1 1 1 1 1 1 1 1 1 1 1 1 1 1 1 1 1 1 1 1 1 1 1 1 1 1 1 1 1 1 1 1 1 
1 1 1 1 1 1 1 1 1 1 1 1 1 1 1 1 1 1 1 1 1 1 1 1 1 1 1 1 1 1 1 1 1 1 1 1 1 1 1 1 1 1 1 1 1 1 1 1 
1 1 1 1 1 1 1 1 1 1 1 1 1 1 1 1 1 1 1 1 1 1 1 1 1 1 1 1 1 1 1 1 1 1 1 1 1 1 1 1 1 1 1 1 1 1 1 1 
1 1 1 1 1 1 1 1 1 1 1 1 1 1 1 1 1 1 1 1 1 1 1 1 1 1 1 1 1 1 1 1 1 1 1 1 1 1 1 1 1 1 1 1 1 1 1 1 
1 1 1 1 1 1 1 1 1 1 1 1 1 1 1 1 1 1 1 1 1 1 1 1 1 1 1 1 1 1 1 1 1 1 1 1 1 1 1 1 1 1 1 1 1 1 1 1 
0.01 0.01 0.01 0.01 0.01 0.01 0.01 0.01 0.01 0.01 0.01 0.01 0.01 0.01 0.01 0.01 0.01 0.01 0.01 0.01 0.01 0.01 0.01 0.01 0.01 0.01 0.01 0.01 0.01 0.01 0.01 0.01 0.01 0.01 0.01 0.01 0.01 0.01 0.01 0.01 0.01 0.01 0.01 0.01 0.01 0.01 0.01 0.01 
0.02 0.02 0.02 0.02 0.02 0.02 0.02 0.02 0.02 0.02 0.02 0.02 0.02 0.02 0.02 0.02 0.02 0.02 0.02 0.02 0.02 0.02 0.02 0.02 0.02 0.02 0.02 0.02 0.02 0.02 0.02 0.02 0.02 0.02 0.02 0.02 0.02 0.02 0.02 0.02 0.02 0.02 0.02 0.02 0.02 0.02 0.02 0.02 
0.03 0.03 0.03 0.03 0.03 0.03 0.03 0.03 0.03 0.03 0.03 0.03 0.03 0.03 0.03 0.03 0.03 0.03 0.03 0.03 0.03 0.03 0.03 0.03 0.03 0.03 0.03 0.03 0.03 0.03 0.03 0.03 0.03 0.03 0.03 0.03 0.03 0.03 0.03 0.03 0.03 0.03 0.03 0.03 0.03 0.03 0.03 0.03 
0.04 0.04 0.04 0.04 0.04 0.04 0.04 0.04 0.04 0.04 0.04 0.04 0.04 0.04 0.04 0.04 0.04 0.04 0.04 0.04 0.04 0.04 0.04 0.04 0.04 0.04 0.04 0.04 0.04 0.04 0.04 0.04 0.04 0.04 0.04 0.04 0.04 0.04 0.04 0.04 0.04 0.04 0.04 0.04 0.04 0.04 0.04 0.04 
0.125 0.125 0.125 0.125 0.125 0.125 0.125 0.125 0.125 0.125 0.125 0.125 0.125 0.125 0.125 0.125 0.125 0.125 0.125 0.125 0.125 0.125 0.125 0.125 0.125 0.125 0.125 0.125 0.125 0.125 0.125 0.125 0.125 0.125 0.125 0.125 0.125 0.125 0.125 0.125 0.125 0.125 0.125 0.125 0.125 0.125 0.125 0.125 
0.25 0.25 0.25 0.25 0.25 0.25 0.25 0.25 0.25 0.25 0.25 0.25 0.25 0.25 0.25 0.25 0.25 0.25 0.25 0.25 0.25 0.25 0.25 0.25 0.25 0.25 0.25 0.25 0.25 0.25 0.25 0.25 0.25 0.25 0.25 0.25 0.25 0.25 0.25 0.25 0.25 0.25 0.25 0.25 0.25 0.25 0.25 0.25 
0.375 0.375 0.375 0.375 0.375 0.375 0.375 0.375 0.375 0.375 0.375 0.375 0.375 0.375 0.375 0.375 0.375 0.375 0.375 0.375 0.375 0.375 0.375 0.375 0.375 0.375 0.375 0.375 0.375 0.375 0.375 0.375 0.375 0.375 0.375 0.375 0.375 0.375 0.375 0.375 0.375 0.375 0.375 0.375 0.375 0.375 0.375 0.375 
0.5 0.5 0.5 0.5 0.5 0.5 0.5 0.5 0.5 0.5 0.5 0.5 0.5 0.5 0.5 0.5 0.5 0.5 0.5 0.5 0.5 0.5 0.5 0.5 0.5 0.5 0.5 0.5 0.5 0.5 0.5 0.5 0.5 0.5 0.5 0.5 0.5 0.5 0.5 0.5 0.5 0.5 0.5 0.5 0.5 0.5 0.5 0.5 
0.625 0.625 0.625 0.625 0.625 0.625 0.625 0.625 0.625 0.625 0.625 0.625 0.625 0.625 0.625 0.625 0.625 0.625 0.625 0.625 0.625 0.625 0.625 0.625 0.625 0.625 0.625 0.625 0.625 0.625 0.625 0.625 0.625 0.625 0.625 0.625 0.625 0.625 0.625 0.625 0.625 0.625 0.625 0.625 0.625 0.625 0.625 0.625 
0.75 0.75 0.75 0.75 0.75 0.75 0.75 0.75 0.75 0.75 0.75 0.75 0.75 0.75 0.75 0.75 0.75 0.75 0.75 0.75 0.75 0.75 0.75 0.75 0.75 0.75 0.75 0.75 0.75 0.75 0.75 0.75 0.75 0.75 0.75 0.75 0.75 0.75 0.75 0.75 0.75 0.75 0.75 0.75 0.75 0.75 0.75 0.75 
0.875 0.875 0.875 0.875 0.875 0.875 0.875 0.875 0.875 0.875 0.875 0.875 0.875 0.875 0.875 0.875 0.875 0.875 0.875 0.875 0.875 0.875 0.875 0.875 0.875 0.875 0.875 0.875 0.875 0.875 0.875 0.875 0.875 0.875 0.875 0.875 0.875 0.875 0.875 0.875 0.875 0.875 0.875 0.875 0.875 0.875 0.875 0.875 
1 1 1 1 1 1 1 1 1 1 1 1 1 1 1 1 1 1 1 1 1 1 1 1 1 1 1 1 1 1 1 1 1 1 1 1 1 1 1 1 1 1 1 1 1 1 1 1 
